$instance size is  500
letting capacity be  82344
letting items be new type enum { 
a1,a2,a3,a4,a5,a6,a7,a8,a9,a10,a11,a12,a13,a14,a15,a16,a17,a18,a19,a20,a21,a22,a23,a24,a25,a26,a27,a28,a29,a30,a31,a32,a33,a34,a35,a36,a37,a38,a39,a40,a41,a42,a43,a44,a45,a46,a47,a48,a49,a50,a51,a52,a53,a54,a55,a56,a57,a58,a59,a60,a61,a62,a63,a64,a65,a66,a67,a68,a69,a70,a71,a72,a73,a74,a75,a76,a77,a78,a79,a80,a81,a82,a83,a84,a85,a86,a87,a88,a89,a90,a91,a92,a93,a94,a95,a96,a97,a98,a99,a100,a101,a102,a103,a104,a105,a106,a107,a108,a109,a110,a111,a112,a113,a114,a115,a116,a117,a118,a119,a120,a121,a122,a123,a124,a125,a126,a127,a128,a129,a130,a131,a132,a133,a134,a135,a136,a137,a138,a139,a140,a141,a142,a143,a144,a145,a146,a147,a148,a149,a150,a151,a152,a153,a154,a155,a156,a157,a158,a159,a160,a161,a162,a163,a164,a165,a166,a167,a168,a169,a170,a171,a172,a173,a174,a175,a176,a177,a178,a179,a180,a181,a182,a183,a184,a185,a186,a187,a188,a189,a190,a191,a192,a193,a194,a195,a196,a197,a198,a199,a200,a201,a202,a203,a204,a205,a206,a207,a208,a209,a210,a211,a212,a213,a214,a215,a216,a217,a218,a219,a220,a221,a222,a223,a224,a225,a226,a227,a228,a229,a230,a231,a232,a233,a234,a235,a236,a237,a238,a239,a240,a241,a242,a243,a244,a245,a246,a247,a248,a249,a250,a251,a252,a253,a254,a255,a256,a257,a258,a259,a260,a261,a262,a263,a264,a265,a266,a267,a268,a269,a270,a271,a272,a273,a274,a275,a276,a277,a278,a279,a280,a281,a282,a283,a284,a285,a286,a287,a288,a289,a290,a291,a292,a293,a294,a295,a296,a297,a298,a299,a300,a301,a302,a303,a304,a305,a306,a307,a308,a309,a310,a311,a312,a313,a314,a315,a316,a317,a318,a319,a320,a321,a322,a323,a324,a325,a326,a327,a328,a329,a330,a331,a332,a333,a334,a335,a336,a337,a338,a339,a340,a341,a342,a343,a344,a345,a346,a347,a348,a349,a350,a351,a352,a353,a354,a355,a356,a357,a358,a359,a360,a361,a362,a363,a364,a365,a366,a367,a368,a369,a370,a371,a372,a373,a374,a375,a376,a377,a378,a379,a380,a381,a382,a383,a384,a385,a386,a387,a388,a389,a390,a391,a392,a393,a394,a395,a396,a397,a398,a399,a400,a401,a402,a403,a404,a405,a406,a407,a408,a409,a410,a411,a412,a413,a414,a415,a416,a417,a418,a419,a420,a421,a422,a423,a424,a425,a426,a427,a428,a429,a430,a431,a432,a433,a434,a435,a436,a437,a438,a439,a440,a441,a442,a443,a444,a445,a446,a447,a448,a449,a450,a451,a452,a453,a454,a455,a456,a457,a458,a459,a460,a461,a462,a463,a464,a465,a466,a467,a468,a469,a470,a471,a472,a473,a474,a475,a476,a477,a478,a479,a480,a481,a482,a483,a484,a485,a486,a487,a488,a489,a490,a491,a492,a493,a494,a495,a496,a497,a498,a499,a500
}
letting weight be function (
a1 --> 576,a2 --> 168,a3 --> 864,a4 --> 126,a5 --> 105,a6 --> 192,a7 --> 105,a8 --> 210,a9 --> 288,a10 --> 63,a11 --> 960,a12 --> 126,a13 --> 126,a14 --> 168,a15 --> 384,a16 --> 960,a17 --> 84,a18 --> 210,a19 --> 147,a20 --> 84,a21 --> 960,a22 --> 126,a23 --> 147,a24 --> 288,a25 --> 288,a26 --> 63,a27 --> 126,a28 --> 960,a29 --> 288,a30 --> 384,a31 --> 288,a32 --> 168,a33 --> 189,a34 --> 672,a35 --> 864,a36 --> 168,a37 --> 288,a38 --> 126,a39 --> 864,a40 --> 21,a41 --> 768,a42 --> 960,a43 --> 864,a44 --> 63,a45 --> 105,a46 --> 576,a47 --> 147,a48 --> 147,a49 --> 96,a50 --> 189,a51 --> 864,a52 --> 147,a53 --> 21,a54 --> 189,a55 --> 42,a56 --> 192,a57 --> 126,a58 --> 42,a59 --> 864,a60 --> 189,a61 --> 210,a62 --> 126,a63 --> 672,a64 --> 21,a65 --> 105,a66 --> 96,a67 --> 126,a68 --> 210,a69 --> 189,a70 --> 21,a71 --> 288,a72 --> 672,a73 --> 768,a74 --> 63,a75 --> 960,a76 --> 864,a77 --> 96,a78 --> 147,a79 --> 21,a80 --> 672,a81 --> 960,a82 --> 63,a83 --> 21,a84 --> 168,a85 --> 576,a86 --> 576,a87 --> 672,a88 --> 960,a89 --> 210,a90 --> 480,a91 --> 42,a92 --> 42,a93 --> 960,a94 --> 21,a95 --> 576,a96 --> 768,a97 --> 288,a98 --> 480,a99 --> 864,a100 --> 864,a101 --> 126,a102 --> 192,a103 --> 210,a104 --> 96,a105 --> 960,a106 --> 672,a107 --> 84,a108 --> 192,a109 --> 63,a110 --> 864,a111 --> 126,a112 --> 96,a113 --> 21,a114 --> 105,a115 --> 768,a116 --> 21,a117 --> 288,a118 --> 126,a119 --> 672,a120 --> 105,a121 --> 147,a122 --> 96,a123 --> 168,a124 --> 147,a125 --> 768,a126 --> 960,a127 --> 84,a128 --> 168,a129 --> 84,a130 --> 576,a131 --> 768,a132 --> 21,a133 --> 576,a134 --> 63,a135 --> 576,a136 --> 480,a137 --> 21,a138 --> 63,a139 --> 63,a140 --> 960,a141 --> 864,a142 --> 84,a143 --> 63,a144 --> 384,a145 --> 210,a146 --> 84,a147 --> 864,a148 --> 960,a149 --> 21,a150 --> 63,a151 --> 768,a152 --> 96,a153 --> 126,a154 --> 21,a155 --> 576,a156 --> 576,a157 --> 864,a158 --> 105,a159 --> 864,a160 --> 288,a161 --> 960,a162 --> 168,a163 --> 126,a164 --> 768,a165 --> 105,a166 --> 147,a167 --> 576,a168 --> 192,a169 --> 288,a170 --> 210,a171 --> 576,a172 --> 288,a173 --> 672,a174 --> 147,a175 --> 384,a176 --> 192,a177 --> 126,a178 --> 864,a179 --> 63,a180 --> 864,a181 --> 960,a182 --> 63,a183 --> 480,a184 --> 960,a185 --> 189,a186 --> 63,a187 --> 672,a188 --> 288,a189 --> 480,a190 --> 189,a191 --> 288,a192 --> 21,a193 --> 147,a194 --> 84,a195 --> 288,a196 --> 480,a197 --> 147,a198 --> 192,a199 --> 147,a200 --> 864,a201 --> 768,a202 --> 147,a203 --> 864,a204 --> 864,a205 --> 288,a206 --> 210,a207 --> 42,a208 --> 126,a209 --> 84,a210 --> 864,a211 --> 105,a212 --> 288,a213 --> 384,a214 --> 576,a215 --> 960,a216 --> 480,a217 --> 768,a218 --> 384,a219 --> 42,a220 --> 105,a221 --> 84,a222 --> 192,a223 --> 192,a224 --> 672,a225 --> 168,a226 --> 480,a227 --> 210,a228 --> 42,a229 --> 480,a230 --> 960,a231 --> 480,a232 --> 21,a233 --> 21,a234 --> 84,a235 --> 105,a236 --> 672,a237 --> 480,a238 --> 189,a239 --> 147,a240 --> 147,a241 --> 189,a242 --> 384,a243 --> 864,a244 --> 384,a245 --> 96,a246 --> 42,a247 --> 210,a248 --> 126,a249 --> 768,a250 --> 480,a251 --> 126,a252 --> 147,a253 --> 96,a254 --> 384,a255 --> 384,a256 --> 189,a257 --> 189,a258 --> 168,a259 --> 960,a260 --> 189,a261 --> 147,a262 --> 126,a263 --> 105,a264 --> 42,a265 --> 960,a266 --> 168,a267 --> 63,a268 --> 288,a269 --> 147,a270 --> 168,a271 --> 105,a272 --> 168,a273 --> 576,a274 --> 63,a275 --> 96,a276 --> 84,a277 --> 189,a278 --> 126,a279 --> 288,a280 --> 96,a281 --> 210,a282 --> 960,a283 --> 42,a284 --> 384,a285 --> 63,a286 --> 288,a287 --> 105,a288 --> 63,a289 --> 768,a290 --> 168,a291 --> 84,a292 --> 63,a293 --> 63,a294 --> 192,a295 --> 864,a296 --> 42,a297 --> 96,a298 --> 480,a299 --> 192,a300 --> 672,a301 --> 960,a302 --> 960,a303 --> 768,a304 --> 126,a305 --> 189,a306 --> 189,a307 --> 384,a308 --> 126,a309 --> 42,a310 --> 210,a311 --> 84,a312 --> 480,a313 --> 384,a314 --> 126,a315 --> 210,a316 --> 288,a317 --> 126,a318 --> 288,a319 --> 960,a320 --> 480,a321 --> 42,a322 --> 105,a323 --> 105,a324 --> 168,a325 --> 864,a326 --> 96,a327 --> 288,a328 --> 96,a329 --> 63,a330 --> 189,a331 --> 21,a332 --> 192,a333 --> 63,a334 --> 105,a335 --> 96,a336 --> 672,a337 --> 192,a338 --> 147,a339 --> 105,a340 --> 768,a341 --> 21,a342 --> 96,a343 --> 84,a344 --> 96,a345 --> 84,a346 --> 105,a347 --> 147,a348 --> 84,a349 --> 105,a350 --> 147,a351 --> 288,a352 --> 864,a353 --> 168,a354 --> 84,a355 --> 960,a356 --> 384,a357 --> 42,a358 --> 210,a359 --> 480,a360 --> 126,a361 --> 63,a362 --> 210,a363 --> 96,a364 --> 576,a365 --> 105,a366 --> 768,a367 --> 768,a368 --> 105,a369 --> 96,a370 --> 576,a371 --> 42,a372 --> 672,a373 --> 288,a374 --> 576,a375 --> 189,a376 --> 63,a377 --> 960,a378 --> 480,a379 --> 105,a380 --> 189,a381 --> 105,a382 --> 105,a383 --> 672,a384 --> 672,a385 --> 126,a386 --> 42,a387 --> 192,a388 --> 960,a389 --> 189,a390 --> 42,a391 --> 288,a392 --> 147,a393 --> 480,a394 --> 192,a395 --> 147,a396 --> 864,a397 --> 168,a398 --> 168,a399 --> 42,a400 --> 105,a401 --> 960,a402 --> 960,a403 --> 168,a404 --> 21,a405 --> 480,a406 --> 768,a407 --> 672,a408 --> 126,a409 --> 105,a410 --> 672,a411 --> 147,a412 --> 384,a413 --> 384,a414 --> 672,a415 --> 960,a416 --> 147,a417 --> 384,a418 --> 768,a419 --> 126,a420 --> 84,a421 --> 288,a422 --> 126,a423 --> 288,a424 --> 168,a425 --> 96,a426 --> 960,a427 --> 84,a428 --> 768,a429 --> 168,a430 --> 21,a431 --> 168,a432 --> 210,a433 --> 126,a434 --> 210,a435 --> 672,a436 --> 126,a437 --> 189,a438 --> 960,a439 --> 84,a440 --> 21,a441 --> 210,a442 --> 168,a443 --> 288,a444 --> 864,a445 --> 63,a446 --> 189,a447 --> 63,a448 --> 864,a449 --> 63,a450 --> 21,a451 --> 147,a452 --> 168,a453 --> 168,a454 --> 192,a455 --> 96,a456 --> 960,a457 --> 864,a458 --> 384,a459 --> 672,a460 --> 960,a461 --> 384,a462 --> 864,a463 --> 768,a464 --> 96,a465 --> 21,a466 --> 288,a467 --> 672,a468 --> 192,a469 --> 672,a470 --> 576,a471 --> 84,a472 --> 147,a473 --> 864,a474 --> 84,a475 --> 210,a476 --> 126,a477 --> 192,a478 --> 192,a479 --> 384,a480 --> 189,a481 --> 576,a482 --> 168,a483 --> 210,a484 --> 768,a485 --> 84,a486 --> 63,a487 --> 288,a488 --> 210,a489 --> 168,a490 --> 21,a491 --> 864,a492 --> 576,a493 --> 168,a494 --> 288,a495 --> 21,a496 --> 105,a497 --> 288,a498 --> 960,a499 --> 288,a500 --> 864
)
letting gain be function (
a1 --> 462,a2 --> 88,a3 --> 693,a4 --> 66,a5 --> 55,a6 --> 154,a7 --> 55,a8 --> 110,a9 --> 231,a10 --> 33,a11 --> 770,a12 --> 66,a13 --> 66,a14 --> 88,a15 --> 308,a16 --> 770,a17 --> 44,a18 --> 110,a19 --> 77,a20 --> 44,a21 --> 770,a22 --> 66,a23 --> 77,a24 --> 231,a25 --> 231,a26 --> 33,a27 --> 66,a28 --> 770,a29 --> 231,a30 --> 308,a31 --> 231,a32 --> 88,a33 --> 99,a34 --> 539,a35 --> 693,a36 --> 88,a37 --> 231,a38 --> 66,a39 --> 693,a40 --> 11,a41 --> 616,a42 --> 770,a43 --> 693,a44 --> 33,a45 --> 55,a46 --> 462,a47 --> 77,a48 --> 77,a49 --> 77,a50 --> 99,a51 --> 693,a52 --> 77,a53 --> 11,a54 --> 99,a55 --> 22,a56 --> 154,a57 --> 66,a58 --> 22,a59 --> 693,a60 --> 99,a61 --> 110,a62 --> 66,a63 --> 539,a64 --> 11,a65 --> 55,a66 --> 77,a67 --> 66,a68 --> 110,a69 --> 99,a70 --> 11,a71 --> 231,a72 --> 539,a73 --> 616,a74 --> 33,a75 --> 770,a76 --> 693,a77 --> 77,a78 --> 77,a79 --> 11,a80 --> 539,a81 --> 770,a82 --> 33,a83 --> 11,a84 --> 88,a85 --> 462,a86 --> 462,a87 --> 539,a88 --> 770,a89 --> 110,a90 --> 385,a91 --> 22,a92 --> 22,a93 --> 770,a94 --> 11,a95 --> 462,a96 --> 616,a97 --> 231,a98 --> 385,a99 --> 693,a100 --> 693,a101 --> 66,a102 --> 154,a103 --> 110,a104 --> 77,a105 --> 770,a106 --> 539,a107 --> 44,a108 --> 154,a109 --> 33,a110 --> 693,a111 --> 66,a112 --> 77,a113 --> 11,a114 --> 55,a115 --> 616,a116 --> 11,a117 --> 231,a118 --> 66,a119 --> 539,a120 --> 55,a121 --> 77,a122 --> 77,a123 --> 88,a124 --> 77,a125 --> 616,a126 --> 770,a127 --> 44,a128 --> 88,a129 --> 44,a130 --> 462,a131 --> 616,a132 --> 11,a133 --> 462,a134 --> 33,a135 --> 462,a136 --> 385,a137 --> 11,a138 --> 33,a139 --> 33,a140 --> 770,a141 --> 693,a142 --> 44,a143 --> 33,a144 --> 308,a145 --> 110,a146 --> 44,a147 --> 693,a148 --> 770,a149 --> 11,a150 --> 33,a151 --> 616,a152 --> 77,a153 --> 66,a154 --> 11,a155 --> 462,a156 --> 462,a157 --> 693,a158 --> 55,a159 --> 693,a160 --> 231,a161 --> 770,a162 --> 88,a163 --> 66,a164 --> 616,a165 --> 55,a166 --> 77,a167 --> 462,a168 --> 154,a169 --> 231,a170 --> 110,a171 --> 462,a172 --> 231,a173 --> 539,a174 --> 77,a175 --> 308,a176 --> 154,a177 --> 66,a178 --> 693,a179 --> 33,a180 --> 693,a181 --> 770,a182 --> 33,a183 --> 385,a184 --> 770,a185 --> 99,a186 --> 33,a187 --> 539,a188 --> 231,a189 --> 385,a190 --> 99,a191 --> 231,a192 --> 11,a193 --> 77,a194 --> 44,a195 --> 231,a196 --> 385,a197 --> 77,a198 --> 154,a199 --> 77,a200 --> 693,a201 --> 616,a202 --> 77,a203 --> 693,a204 --> 693,a205 --> 231,a206 --> 110,a207 --> 22,a208 --> 66,a209 --> 44,a210 --> 693,a211 --> 55,a212 --> 231,a213 --> 308,a214 --> 462,a215 --> 770,a216 --> 385,a217 --> 616,a218 --> 308,a219 --> 22,a220 --> 55,a221 --> 44,a222 --> 154,a223 --> 154,a224 --> 539,a225 --> 88,a226 --> 385,a227 --> 110,a228 --> 22,a229 --> 385,a230 --> 770,a231 --> 385,a232 --> 11,a233 --> 11,a234 --> 44,a235 --> 55,a236 --> 539,a237 --> 385,a238 --> 99,a239 --> 77,a240 --> 77,a241 --> 99,a242 --> 308,a243 --> 693,a244 --> 308,a245 --> 77,a246 --> 22,a247 --> 110,a248 --> 66,a249 --> 616,a250 --> 385,a251 --> 66,a252 --> 77,a253 --> 77,a254 --> 308,a255 --> 308,a256 --> 99,a257 --> 99,a258 --> 88,a259 --> 770,a260 --> 99,a261 --> 77,a262 --> 66,a263 --> 55,a264 --> 22,a265 --> 770,a266 --> 88,a267 --> 33,a268 --> 231,a269 --> 77,a270 --> 88,a271 --> 55,a272 --> 88,a273 --> 462,a274 --> 33,a275 --> 77,a276 --> 44,a277 --> 99,a278 --> 66,a279 --> 231,a280 --> 77,a281 --> 110,a282 --> 770,a283 --> 22,a284 --> 308,a285 --> 33,a286 --> 231,a287 --> 55,a288 --> 33,a289 --> 616,a290 --> 88,a291 --> 44,a292 --> 33,a293 --> 33,a294 --> 154,a295 --> 693,a296 --> 22,a297 --> 77,a298 --> 385,a299 --> 154,a300 --> 539,a301 --> 770,a302 --> 770,a303 --> 616,a304 --> 66,a305 --> 99,a306 --> 99,a307 --> 308,a308 --> 66,a309 --> 22,a310 --> 110,a311 --> 44,a312 --> 385,a313 --> 308,a314 --> 66,a315 --> 110,a316 --> 231,a317 --> 66,a318 --> 231,a319 --> 770,a320 --> 385,a321 --> 22,a322 --> 55,a323 --> 55,a324 --> 88,a325 --> 693,a326 --> 77,a327 --> 231,a328 --> 77,a329 --> 33,a330 --> 99,a331 --> 11,a332 --> 154,a333 --> 33,a334 --> 55,a335 --> 77,a336 --> 539,a337 --> 154,a338 --> 77,a339 --> 55,a340 --> 616,a341 --> 11,a342 --> 77,a343 --> 44,a344 --> 77,a345 --> 44,a346 --> 55,a347 --> 77,a348 --> 44,a349 --> 55,a350 --> 77,a351 --> 231,a352 --> 693,a353 --> 88,a354 --> 44,a355 --> 770,a356 --> 308,a357 --> 22,a358 --> 110,a359 --> 385,a360 --> 66,a361 --> 33,a362 --> 110,a363 --> 77,a364 --> 462,a365 --> 55,a366 --> 616,a367 --> 616,a368 --> 55,a369 --> 77,a370 --> 462,a371 --> 22,a372 --> 539,a373 --> 231,a374 --> 462,a375 --> 99,a376 --> 33,a377 --> 770,a378 --> 385,a379 --> 55,a380 --> 99,a381 --> 55,a382 --> 55,a383 --> 539,a384 --> 539,a385 --> 66,a386 --> 22,a387 --> 154,a388 --> 770,a389 --> 99,a390 --> 22,a391 --> 231,a392 --> 77,a393 --> 385,a394 --> 154,a395 --> 77,a396 --> 693,a397 --> 88,a398 --> 88,a399 --> 22,a400 --> 55,a401 --> 770,a402 --> 770,a403 --> 88,a404 --> 11,a405 --> 385,a406 --> 616,a407 --> 539,a408 --> 66,a409 --> 55,a410 --> 539,a411 --> 77,a412 --> 308,a413 --> 308,a414 --> 539,a415 --> 770,a416 --> 77,a417 --> 308,a418 --> 616,a419 --> 66,a420 --> 44,a421 --> 231,a422 --> 66,a423 --> 231,a424 --> 88,a425 --> 77,a426 --> 770,a427 --> 44,a428 --> 616,a429 --> 88,a430 --> 11,a431 --> 88,a432 --> 110,a433 --> 66,a434 --> 110,a435 --> 539,a436 --> 66,a437 --> 99,a438 --> 770,a439 --> 44,a440 --> 11,a441 --> 110,a442 --> 88,a443 --> 231,a444 --> 693,a445 --> 33,a446 --> 99,a447 --> 33,a448 --> 693,a449 --> 33,a450 --> 11,a451 --> 77,a452 --> 88,a453 --> 88,a454 --> 154,a455 --> 77,a456 --> 770,a457 --> 693,a458 --> 308,a459 --> 539,a460 --> 770,a461 --> 308,a462 --> 693,a463 --> 616,a464 --> 77,a465 --> 11,a466 --> 231,a467 --> 539,a468 --> 154,a469 --> 539,a470 --> 462,a471 --> 44,a472 --> 77,a473 --> 693,a474 --> 44,a475 --> 110,a476 --> 66,a477 --> 154,a478 --> 154,a479 --> 308,a480 --> 99,a481 --> 462,a482 --> 88,a483 --> 110,a484 --> 616,a485 --> 44,a486 --> 33,a487 --> 231,a488 --> 110,a489 --> 88,a490 --> 11,a491 --> 693,a492 --> 462,a493 --> 88,a494 --> 231,a495 --> 11,a496 --> 55,a497 --> 231,a498 --> 770,a499 --> 231,a500 --> 693
)
